p cnf 44 124
a 3 36 0
e 1 2 4 5 6 7 8 9 10 11 12 13 14 15 16 17 18 19 20 21 22 23 24 25 26 27 28 29 30 31 32 33 34 35 37 38 39 40 41 42 43 44 0
-4 -2 0
-4 3 0
2 -3 4 0
-5 -1 0
-5 4 0
1 -4 5 0
-7 5 0
-7 6 0
-5 -6 7 0
-8 6 0
-8 6 0
-6 8 0
3 5 -9 0
-3 -5 -9 0
3 -5 9 0
-3 5 9 0
10 -9 0
10 -4 0
9 4 -10 0
11 -12 -13 0
-11 12 -13 0
11 12 13 0
-11 -12 13 0
-14 -10 0
-14 13 0
10 -13 14 0
8 -14 -15 0
-8 14 -15 0
8 14 15 0
-8 -14 15 0
-12 1 -16 0
12 -1 -16 0
-12 -1 16 0
12 1 16 0
-17 16 0
-17 4 0
-16 -4 17 0
-1 -19 0
1 -19 0
20 18 0
20 -19 0
-18 19 -20 0
-2 -20 -21 0
2 20 -21 0
-2 20 21 0
2 -20 21 0
-18 22 -23 0
18 -22 -23 0
-18 -22 23 0
18 22 23 0
24 -19 0
24 -23 0
19 23 -24 0
25 -5 0
25 24 0
5 -24 -25 0
3 6 -26 0
-3 -6 -26 0
3 -6 26 0
-3 6 26 0
-27 -19 0
-27 12 0
19 -12 27 0
-26 -27 -28 0
26 27 -28 0
-26 27 28 0
26 -27 28 0
29 -24 0
29 -24 0
24 -29 0
30 -28 0
30 -29 0
28 29 -30 0
25 30 -31 0
-25 -30 -31 0
25 -30 31 0
-25 30 31 0
32 21 0
32 31 0
-21 -31 -32 0
-33 -17 0
-33 32 0
17 -32 33 0
34 -15 0
34 -33 0
15 33 -34 0
-36 -18 0
-36 -35 0
18 35 36 0
-36 2 -37 0
36 -2 -37 0
-36 -2 37 0
36 2 37 0
38 -4 -39 0
-38 4 -39 0
38 4 39 0
-38 -4 39 0
37 -39 -40 0
-37 39 -40 0
37 39 40 0
-37 -39 40 0
-6 41 0
6 41 0
-42 -40 0
-42 41 0
40 -41 42 0
43 -34 0
43 -42 0
34 42 -43 0
44 -7 0
44 -43 0
7 43 -44 0
-34 -3 -26 5 2 43 0
-38 -11 -3 7 0
8 27 -22 2 -26 4 0
9 38 -29 36 -40 0
-13 -28 30 -35 -32 -9 25 16 0
-32 -28 -31 38 7 -27 0
13 -25 42 -38 0
-32 -19 -41 39 11 0
-6 13 -9 23 0
-9 29 -7 0
30 -22 18 -39 -23 0
44 0
